(declare-fun e () String)
(declare-fun c () String)
(declare-fun g () String)
(declare-fun b () String)
(declare-fun f () String)
(declare-fun h () String)
(assert (= (str.++ g "gdgb") (str.++ g "fg")))
(assert (= (str.++ "fc" c "df" h) (str.++ "hhd" f)))
(assert (= (str.++ b "a") (str.++ e e "h")))

(check-sat)
